n_res = 4;
rc = [ 11, 11, 9, 7 ];
n_tasks = 30;
d = [ 1, 2, 9, 7, 1, 9, 7, 5, 4, 1, 7, 3, 3, 10, 2, 10, 6, 8, 10, 2, 2, 6, 7, 10, 2, 7, 4, 10, 10, 4 ];
rr = [| 11, 11, 11, 11, 11, 11, 11, 11, 11, 11, 11, 11, 11, 11, 11, 11, 11, 11, 11, 11, 11, 11, 11, 11, 11, 11, 11, 11, 11, 11
      | 11, 11, 11, 11, 11, 11, 11, 11, 11, 11, 11, 11, 11, 11, 11, 11, 11, 11, 11, 11, 11, 11, 11, 11, 11, 11, 11, 11, 11, 11
      | 9, 9, 9, 9, 9, 9, 9, 9, 9, 9, 9, 9, 9, 9, 9, 9, 9, 9, 9, 9, 9, 9, 9, 9, 9, 9, 9, 9, 9, 9
      | 7, 7, 7, 7, 7, 7, 7, 7, 7, 7, 7, 7, 7, 7, 7, 7, 7, 7, 7, 7, 7, 7, 7, 7, 7, 7, 7, 7, 7, 7|];
suc = [ { 4, 10, 16 },
       { 6, 9, 12 },
       { 7, 10, 16 },
       { 5, 8, 19 },
       { 7, 11, 20 },
       { 7, 14, 19 },
       { 13, 18, 23 },
       { 14, 15, 20 },
       { 10, 16, 19 },
       { 11, 15 },
       { 17, 24 },
       { 18, 23, 26 },
       { 21, 24, 26 },
       { 22, 25 },
       { 17, 24, 26 },
       { 22, 29 },
       { 18, 21, 23 },
       { 30 },
       { 22, 25, 28 },
       { 21, 28 },
       { 29 },
       { 30 },
       { 25 },
       { 27 },
       { 27, 29 },
       { 27, 28 },
       { 30 },
       {  },
       {  },
       {  } ];
